NAME: instance_391
TYPE: TSP
DIMENSION: 20
EDGE_WEIGHT_TYPE: EUC_2D
NODE_COORD_SECTION
0 64.46 67.73
1 59.47 15.33
2 37.61 88.99
3 77.70 30.22
4 65.58 62.02
5 12.58 1.40
6 38.59 17.41
7 21.96 74.28
8 67.98 8.08
9 58.89 21.18
10 70.39 78.13
11 23.56 77.31
12 56.20 95.90
13 39.02 82.12
14 99.13 13.20
15 36.05 54.53
16 23.79 25.60
17 94.86 97.11
18 15.04 66.09
19 83.07 49.13
EOF
